w = 28;
n = 22;
measures = [|3, 3,
|3, 4,
|3, 5,
|3, 6,
|3, 7,
|3, 8,
|3, 9,
|3, 10,
|3, 11,
|3, 16,
|3, 17,
|3, 21,
|3, 23,
|4, 3,
|4, 4,
|4, 5,
|4, 8,
|4, 13,
|4, 23,
|5, 6,
|5, 9,
|5, 13,
|];
initial_x = [0, 3, 6, 9, 12, 15, 18, 21, 24, 0, 3, 6, 9, 12, 16, 20, 24, 0, 4, 8, 13, 18];
initial_y = [0, 0, 0, 0, 0, 0, 0, 0, 0, 11, 11, 11, 11, 11, 11, 11, 11, 34, 34, 34, 34, 34];